0000000000000000
0000000000000000
0000000000000000
0000011110000000
0000000111000000
0000000001000000
0000000001000000
0000000001000000
0000011111111000
0000001111111100
0000000000000000
0000000000000000
0000000000000000
0000000000000000
0000000000000000
0000000000000000
